NAME : P113212.28583.tour
COMMENT : Length = 28583
COMMENT : Found by LKH-3 [Keld Helsgaun] Tue Dec 17 14:07:03 2024
TYPE : TOUR
DIMENSION : 120
TOUR_SECTION
1
83
74
86
82
73
76
77
89
85
84
78
88
81
90
87
75
79
80
72
111
2
112
3
113
4
31
21
20
24
12
25
13
22
16
17
18
29
19
28
26
27
30
15
11
23
14
114
5
115
6
40
49
34
38
32
48
46
70
61
69
50
56
63
55
65
64
60
71
54
67
66
51
58
53
59
68
62
52
57
41
37
47
43
36
39
44
42
33
45
35
116
7
117
8
118
9
119
10
96
92
102
93
91
98
106
109
103
107
104
95
94
100
101
105
99
108
110
97
120
-1
EOF
